p cnf 1578 835
-1315 1439 0
-1439 1315 0
-1441 -1442 0
-1317 1441 0
-1318 1442 0
-1441 1317 0
-1442 1318 0
-1444 -1445 0
-1320 1444 0
-1321 1445 0
-1444 1320 0
-1445 1321 0
-1447 -1448 0
-1447 -1449 0
-1448 -1449 0
-1323 1447 0
-1324 1448 0
-1325 1449 0
-1447 1323 0
-1448 1324 0
-1449 1325 0
-1451 -1452 0
-1327 1451 0
-1328 1452 0
-1451 1327 0
-1452 1328 0
-1454 -1455 0
-1454 -1456 0
-1455 -1456 0
-1330 1454 0
-1331 1455 0
-1332 1456 0
-1454 1330 0
-1455 1331 0
-1456 1332 0
-1458 -1459 0
-1334 1458 0
-1335 1459 0
-1458 1334 0
-1459 1335 0
-1461 -1462 0
-1461 -1463 0
-1462 -1463 0
-1337 1461 0
-1338 1462 0
-1339 1463 0
-1461 1337 0
-1462 1338 0
-1463 1339 0
-1465 -1466 0
-1341 1465 0
-1342 1466 0
-1465 1341 0
-1466 1342 0
-1468 -1469 0
-1468 -1470 0
-1469 -1470 0
-1344 1468 0
-1345 1469 0
-1346 1470 0
-1468 1344 0
-1469 1345 0
-1470 1346 0
-1472 -1473 0
-1348 1472 0
-1349 1473 0
-1472 1348 0
-1473 1349 0
-1475 -1476 0
-1475 -1477 0
-1476 -1477 0
-1351 1477 0
-1352 1476 0
-1353 1475 0
-1354 1475 0
-1475 1353 1354 0
-1476 1352 0
-1477 1351 0
-1480 1485 1486 1487 1488 1489 0
-1485 -1486 0
-1485 -1487 0
-1485 -1488 0
-1485 -1489 0
-1486 -1487 0
-1486 -1488 0
-1486 -1489 0
-1487 -1488 0
-1487 -1489 0
-1488 -1489 0
-1480 1490 1491 1492 1493 1494 1495 1496 0
-1490 -1491 0
-1490 -1492 0
-1490 -1493 0
-1490 -1494 0
-1490 -1495 0
-1490 -1496 0
-1491 -1492 0
-1491 -1493 0
-1491 -1494 0
-1491 -1495 0
-1491 -1496 0
-1492 -1493 0
-1492 -1494 0
-1492 -1495 0
-1492 -1496 0
-1493 -1494 0
-1493 -1495 0
-1493 -1496 0
-1494 -1495 0
-1494 -1496 0
-1495 -1496 0
-1480 1497 1498 1499 1500 1501 1502 1503 1504 0
-1497 -1498 0
-1497 -1499 0
-1497 -1500 0
-1497 -1501 0
-1497 -1502 0
-1497 -1503 0
-1497 -1504 0
-1498 -1499 0
-1498 -1500 0
-1498 -1501 0
-1498 -1502 0
-1498 -1503 0
-1498 -1504 0
-1499 -1500 0
-1499 -1501 0
-1499 -1502 0
-1499 -1503 0
-1499 -1504 0
-1500 -1501 0
-1500 -1502 0
-1500 -1503 0
-1500 -1504 0
-1501 -1502 0
-1501 -1503 0
-1501 -1504 0
-1502 -1503 0
-1502 -1504 0
-1503 -1504 0
-1480 1482 0
-1480 1483 0
-1480 1484 0
-1479 -1480 0
-1498 -1482 1400 0
-1503 -1482 1392 0
-1504 -1482 1407 0
-1499 -1482 1386 0
-1502 -1482 1411 0
-1500 -1482 1395 0
-1501 -1482 1404 0
-1497 -1482 1421 0
-1485 -1483 1268 0
-1489 -1483 1245 0
-1486 -1483 1246 0
-1487 -1483 1261 0
-1488 -1483 1276 0
-1488 -1490 -1484 1399 0
-1488 -1495 -1484 1406 0
-1488 -1491 -1484 1384 0
-1486 -1494 -1484 1385 0
-1488 -1496 -1484 1387 0
-1485 -1491 -1484 1388 0
-1487 -1491 -1484 1402 0
-1489 -1494 -1484 1417 0
-1487 -1496 -1484 1389 0
-1488 -1493 -1484 1391 0
-1487 -1494 -1484 1410 0
-1485 -1494 -1484 1403 0
-1489 -1495 -1484 1393 0
-1489 -1491 -1484 1418 0
-1485 -1495 -1484 1419 0
-1488 -1492 -1484 1412 0
-1486 -1491 -1484 1413 0
-1489 -1490 -1484 1396 0
-1489 -1492 -1484 1414 0
-1486 -1496 -1484 1405 0
-1489 -1496 -1484 1398 0
-1488 -1494 -1484 1415 0
-1485 -1496 -1484 1422 0
-1486 -1492 -1484 1423 0
-1485 -1492 -1484 1424 0
-1480 -1485 -1500 0
-1480 -1485 -1497 0
-1480 -1485 -1503 0
-1480 -1488 -1503 0
-1480 -1489 -1500 0
-1480 -1489 -1503 0
-1480 -1487 -1499 0
-1480 -1487 -1500 0
-1480 -1487 -1502 0
-1480 -1487 -1497 0
-1480 -1487 -1503 0
-1480 -1486 -1500 0
-1480 -1486 -1502 0
-1480 -1486 -1497 0
-1480 -1486 -1503 0
-1480 -1485 -1490 0
-1480 -1485 -1493 0
-1480 -1489 -1493 0
-1480 -1487 -1490 0
-1480 -1487 -1493 0
-1480 -1487 -1492 0
-1480 -1487 -1495 0
-1480 -1486 -1490 0
-1480 -1486 -1493 0
-1480 -1486 -1495 0
-1382 1480 0
-1381 1479 0
-1479 1381 0
-1480 1382 0
-1505 1509 0
-1508 1509 0
-1506 -1509 0
-1507 -1509 0
-1245 1510 -1480 1489 0
-1245 1510 1480 0
1245 -1510 -1480 1493 0
1245 -1510 1480 0
-1246 1511 -1480 1486 0
-1246 1511 1480 0
1246 -1511 -1480 1495 0
1246 -1511 1480 0
-1384 1512 -1480 -1488 1491 0
-1384 1512 -1480 1488 0
-1384 1512 1480 0
1384 -1512 -1480 -1488 1498 0
1384 -1512 -1480 1488 0
1384 -1512 1480 0
-1385 1513 -1480 -1486 1494 0
-1385 1513 -1480 1486 0
-1385 1513 1480 0
1385 -1513 -1480 -1486 1501 0
1385 -1513 -1480 1486 0
1385 -1513 1480 0
-1386 1514 -1480 1499 0
-1386 1514 1480 0
1386 -1514 -1480 1487 0
1386 -1514 1480 0
-1387 1515 -1480 -1488 1496 0
-1387 1515 -1480 1488 0
-1387 1515 1480 0
1387 -1515 -1480 -1488 1504 0
1387 -1515 -1480 1488 0
1387 -1515 1480 0
-1388 1516 -1480 -1485 1491 0
-1388 1516 -1480 1485 0
-1388 1516 1480 0
1388 -1516 -1480 -1485 1498 0
1388 -1516 -1480 1485 0
1388 -1516 1480 0
-1251 1517 0
1251 -1517 -1480 1496 0
1251 -1517 1480 0
-1389 1518 -1480 -1487 1496 0
-1389 1518 -1480 1487 0
-1389 1518 1480 0
1389 -1518 -1480 -1487 1504 0
1389 -1518 -1480 1487 0
1389 -1518 1480 0
-1391 1519 -1480 -1488 1493 0
-1391 1519 -1480 1488 0
-1391 1519 1480 0
1391 -1519 -1480 -1488 1500 0
1391 -1519 -1480 1488 0
1391 -1519 1480 0
-1392 1520 -1480 1503 0
-1392 1520 1480 0
1392 -1520 -1480 1488 0
1392 -1520 1480 0
-1393 1521 -1480 -1489 1495 0
-1393 1521 -1480 1489 0
-1393 1521 1480 0
1393 -1521 -1480 -1489 1502 0
1393 -1521 -1480 1489 0
1393 -1521 1480 0
-1395 1522 -1480 1500 0
-1395 1522 1480 0
1395 -1522 -1480 1489 0
1395 -1522 1480 0
-1396 1523 -1480 -1489 1490 0
-1396 1523 -1480 1489 0
-1396 1523 1480 0
1396 -1523 -1480 -1489 1497 0
1396 -1523 -1480 1489 0
1396 -1523 1480 0
-1398 1524 -1480 -1489 1496 0
-1398 1524 -1480 1489 0
-1398 1524 1480 0
1398 -1524 -1480 -1489 1504 0
1398 -1524 -1480 1489 0
1398 -1524 1480 0
-1399 1525 -1480 -1488 1490 0
-1399 1525 -1480 1488 0
-1399 1525 1480 0
1399 -1525 -1480 -1488 1497 0
1399 -1525 -1480 1488 0
1399 -1525 1480 0
-1400 1526 -1480 1498 0
-1400 1526 1480 0
1400 -1526 0
-1261 1527 -1480 1487 0
-1261 1527 1480 0
1261 -1527 -1480 1492 0
1261 -1527 1480 0
-1402 1528 -1480 -1487 1491 0
-1402 1528 -1480 1487 0
-1402 1528 1480 0
1402 -1528 -1480 -1487 1498 0
1402 -1528 -1480 1487 0
1402 -1528 1480 0
-1403 1529 -1480 -1485 1494 0
-1403 1529 -1480 1485 0
-1403 1529 1480 0
1403 -1529 -1480 -1485 1501 0
1403 -1529 -1480 1485 0
1403 -1529 1480 0
-1265 1530 0
1265 -1530 -1480 1491 0
1265 -1530 1480 0
-1404 1531 -1480 1501 0
-1404 1531 1480 0
1404 -1531 0
-1405 1532 -1480 -1486 1496 0
-1405 1532 -1480 1486 0
-1405 1532 1480 0
1405 -1532 -1480 -1486 1504 0
1405 -1532 -1480 1486 0
1405 -1532 1480 0
-1406 1533 -1480 -1488 1495 0
-1406 1533 -1480 1488 0
-1406 1533 1480 0
1406 -1533 -1480 -1488 1502 0
1406 -1533 -1480 1488 0
1406 -1533 1480 0
-1407 1534 -1480 1504 0
-1407 1534 1480 0
1407 -1534 0
-1268 1535 -1480 1485 0
-1268 1535 1480 0
1268 -1535 -1480 1490 0
1268 -1535 1480 0
-1270 1536 0
1270 -1536 -1480 1494 0
1270 -1536 1480 0
-1410 1537 -1480 -1487 1494 0
-1410 1537 -1480 1487 0
-1410 1537 1480 0
1410 -1537 -1480 -1487 1501 0
1410 -1537 -1480 1487 0
1410 -1537 1480 0
-1411 1538 -1480 1502 0
-1411 1538 1480 0
1411 -1538 -1480 1486 0
1411 -1538 1480 0
-1412 1539 -1480 -1488 1492 0
-1412 1539 -1480 1488 0
-1412 1539 1480 0
1412 -1539 -1480 -1488 1499 0
1412 -1539 -1480 1488 0
1412 -1539 1480 0
-1413 1540 -1480 -1486 1491 0
-1413 1540 -1480 1486 0
-1413 1540 1480 0
1413 -1540 -1480 -1486 1498 0
1413 -1540 -1480 1486 0
1413 -1540 1480 0
-1414 1541 -1480 -1489 1492 0
-1414 1541 -1480 1489 0
-1414 1541 1480 0
1414 -1541 -1480 -1489 1499 0
1414 -1541 -1480 1489 0
1414 -1541 1480 0
-1276 1542 -1480 1488 0
-1276 1542 1480 0
1276 -1542 0
-1415 1543 -1480 -1488 1494 0
-1415 1543 -1480 1488 0
-1415 1543 1480 0
1415 -1543 -1480 -1488 1501 0
1415 -1543 -1480 1488 0
1415 -1543 1480 0
-1417 1544 -1480 -1489 1494 0
-1417 1544 -1480 1489 0
-1417 1544 1480 0
1417 -1544 -1480 -1489 1501 0
1417 -1544 -1480 1489 0
1417 -1544 1480 0
-1418 1545 -1480 -1489 1491 0
-1418 1545 -1480 1489 0
-1418 1545 1480 0
1418 -1545 -1480 -1489 1498 0
1418 -1545 -1480 1489 0
1418 -1545 1480 0
-1419 1546 -1480 -1485 1495 0
-1419 1546 -1480 1485 0
-1419 1546 1480 0
1419 -1546 -1480 -1485 1502 0
1419 -1546 -1480 1485 0
1419 -1546 1480 0
-1421 1547 -1480 1497 0
-1421 1547 1480 0
1421 -1547 -1480 1485 0
1421 -1547 1480 0
-1422 1548 -1480 -1485 1496 0
-1422 1548 -1480 1485 0
-1422 1548 1480 0
1422 -1548 -1480 -1485 1504 0
1422 -1548 -1480 1485 0
1422 -1548 1480 0
-1423 1549 -1480 -1486 1492 0
-1423 1549 -1480 1486 0
-1423 1549 1480 0
1423 -1549 -1480 -1486 1499 0
1423 -1549 -1480 1486 0
1423 -1549 1480 0
-1424 1550 -1480 -1485 1492 0
-1424 1550 -1480 1485 0
-1424 1550 1480 0
1424 -1550 -1480 -1485 1499 0
1424 -1550 -1480 1485 0
1424 -1550 1480 0
-1506 1561 1562 1563 1564 1565 1566 1567 1568 0
-1561 -1562 0
-1561 -1563 0
-1561 -1564 0
-1561 -1565 0
-1561 -1566 0
-1561 -1567 0
-1561 -1568 0
-1562 -1563 0
-1562 -1564 0
-1562 -1565 0
-1562 -1566 0
-1562 -1567 0
-1562 -1568 0
-1563 -1564 0
-1563 -1565 0
-1563 -1566 0
-1563 -1567 0
-1563 -1568 0
-1564 -1565 0
-1564 -1566 0
-1564 -1567 0
-1564 -1568 0
-1565 -1566 0
-1565 -1567 0
-1565 -1568 0
-1566 -1567 0
-1566 -1568 0
-1567 -1568 0
-1506 1569 1570 1571 1572 1573 0
-1569 -1570 0
-1569 -1571 0
-1569 -1572 0
-1569 -1573 0
-1570 -1571 0
-1570 -1572 0
-1570 -1573 0
-1571 -1572 0
-1571 -1573 0
-1572 -1573 0
-1506 1557 0
-1506 1555 0
-1507 1569 1570 1571 1572 1573 0
-1569 -1570 0
-1569 -1571 0
-1569 -1572 0
-1569 -1573 0
-1570 -1571 0
-1570 -1572 0
-1570 -1573 0
-1571 -1572 0
-1571 -1573 0
-1572 -1573 0
-1507 1561 1562 1563 1564 1565 1566 1567 1568 0
-1561 -1562 0
-1561 -1563 0
-1561 -1564 0
-1561 -1565 0
-1561 -1566 0
-1561 -1567 0
-1561 -1568 0
-1562 -1563 0
-1562 -1564 0
-1562 -1565 0
-1562 -1566 0
-1562 -1567 0
-1562 -1568 0
-1563 -1564 0
-1563 -1565 0
-1563 -1566 0
-1563 -1567 0
-1563 -1568 0
-1564 -1565 0
-1564 -1566 0
-1564 -1567 0
-1564 -1568 0
-1565 -1566 0
-1565 -1567 0
-1565 -1568 0
-1566 -1567 0
-1566 -1568 0
-1567 -1568 0
-1507 1556 0
-1507 1553 0
-1508 1517 0
-1508 1401 0
-1505 -1506 0
-1505 -1507 0
-1505 -1508 0
-1506 -1507 0
-1506 -1508 0
-1507 -1508 0
-1498 1551 -1526 0
-1503 1551 -1520 0
-1504 1551 -1534 0
-1499 1551 -1514 0
-1502 1551 -1538 0
-1500 1551 -1522 0
-1501 1551 -1531 0
-1497 1551 -1547 0
-1494 -1552 1536 0
-1493 -1552 1510 0
-1495 -1552 1511 0
-1491 -1552 1530 0
-1490 -1552 1535 0
-1492 -1552 1527 0
-1496 -1552 1517 0
-1569 -1553 1535 0
-1573 -1553 1510 0
-1570 -1553 1511 0
-1571 -1553 1527 0
-1572 -1553 1542 0
-1485 -1554 1547 0
-1488 -1554 1520 0
-1487 -1554 1514 0
-1486 -1554 1538 0
-1489 -1554 1522 0
-1565 -1555 1536 0
-1564 -1555 1510 0
-1566 -1555 1511 0
-1562 -1555 1530 0
-1561 -1555 1535 0
-1563 -1555 1527 0
-1567 -1555 1542 0
-1568 -1555 1517 0
-1561 -1556 1409 0
-1566 -1556 1394 0
-1562 -1556 1420 0
-1567 -1556 1397 0
-1565 -1556 1401 0
-1564 -1556 1416 0
-1563 -1556 1408 0
-1568 -1556 1390 0
-1569 -1557 1409 0
-1572 -1557 1397 0
-1570 -1557 1394 0
-1573 -1557 1416 0
-1571 -1557 1408 0
-1485 1558 -1535 0
-1489 1558 -1510 0
-1486 1558 -1511 0
-1487 1558 -1527 0
-1488 1558 -1542 0
-1488 -1490 1559 -1525 0
-1488 -1495 1559 -1533 0
-1488 -1491 1559 -1512 0
-1486 -1494 1559 -1513 0
-1488 -1496 1559 -1515 0
-1485 -1491 1559 -1516 0
-1487 -1491 1559 -1528 0
-1489 -1494 1559 -1544 0
-1487 -1496 1559 -1518 0
-1488 -1493 1559 -1519 0
-1487 -1494 1559 -1537 0
-1485 -1494 1559 -1529 0
-1489 -1495 1559 -1521 0
-1489 -1491 1559 -1545 0
-1485 -1495 1559 -1546 0
-1488 -1492 1559 -1539 0
-1486 -1491 1559 -1540 0
-1489 -1490 1559 -1523 0
-1489 -1492 1559 -1541 0
-1486 -1496 1559 -1532 0
-1489 -1496 1559 -1524 0
-1488 -1494 1559 -1543 0
-1485 -1496 1559 -1548 0
-1486 -1492 1559 -1549 0
-1485 -1492 1559 -1550 0
-1488 -1497 -1560 1525 0
-1488 -1502 -1560 1533 0
-1488 -1498 -1560 1512 0
-1486 -1501 -1560 1513 0
-1488 -1504 -1560 1515 0
-1485 -1498 -1560 1516 0
-1487 -1498 -1560 1528 0
-1489 -1501 -1560 1544 0
-1487 -1504 -1560 1518 0
-1488 -1500 -1560 1519 0
-1487 -1501 -1560 1537 0
-1485 -1501 -1560 1529 0
-1489 -1502 -1560 1521 0
-1489 -1498 -1560 1545 0
-1485 -1502 -1560 1546 0
-1488 -1499 -1560 1539 0
-1486 -1498 -1560 1540 0
-1489 -1497 -1560 1523 0
-1489 -1499 -1560 1541 0
-1486 -1504 -1560 1532 0
-1489 -1504 -1560 1524 0
-1488 -1501 -1560 1543 0
-1485 -1504 -1560 1548 0
-1486 -1499 -1560 1549 0
-1485 -1499 -1560 1550 0
-1480 1552 0
-1574 1485 -1490 0
-1574 -1485 1490 0
-1574 1486 -1495 0
-1574 -1486 1495 0
-1574 1487 -1492 0
-1574 -1487 1492 0
-1574 1489 -1493 0
-1574 -1489 1493 0
-1485 -1490 1574 0
-1486 -1495 1574 0
-1487 -1492 1574 0
-1489 -1493 1574 0
-1488 -1574 0
-1494 -1574 0
-1491 -1574 0
-1496 -1574 0
-1480 -1558 1574 0
-1575 1490 -1497 0
-1575 -1490 1497 0
-1575 1491 -1498 0
-1575 -1491 1498 0
-1575 1492 -1499 0
-1575 -1492 1499 0
-1575 1493 -1500 0
-1575 -1493 1500 0
-1575 1494 -1501 0
-1575 -1494 1501 0
-1575 1495 -1502 0
-1575 -1495 1502 0
-1575 1496 -1504 0
-1575 -1496 1504 0
-1490 -1497 1575 0
-1491 -1498 1575 0
-1492 -1499 1575 0
-1493 -1500 1575 0
-1494 -1501 1575 0
-1495 -1502 1575 0
-1496 -1504 1575 0
-1503 -1575 0
-1480 -1559 1575 0
-1576 1497 -1490 0
-1576 -1497 1490 0
-1576 1498 -1491 0
-1576 -1498 1491 0
-1576 1499 -1492 0
-1576 -1499 1492 0
-1576 1500 -1493 0
-1576 -1500 1493 0
-1576 1501 -1494 0
-1576 -1501 1494 0
-1576 1502 -1495 0
-1576 -1502 1495 0
-1576 1504 -1496 0
-1576 -1504 1496 0
-1497 -1490 1576 0
-1498 -1491 1576 0
-1499 -1492 1576 0
-1500 -1493 1576 0
-1501 -1494 1576 0
-1502 -1495 1576 0
-1504 -1496 1576 0
-1503 -1576 0
-1577 1497 -1485 0
-1577 -1497 1485 0
-1577 1502 -1486 0
-1577 -1502 1486 0
-1577 1499 -1487 0
-1577 -1499 1487 0
-1577 1503 -1488 0
-1577 -1503 1488 0
-1577 1500 -1489 0
-1577 -1500 1489 0
-1497 -1485 1577 0
-1502 -1486 1577 0
-1499 -1487 1577 0
-1503 -1488 1577 0
-1500 -1489 1577 0
-1501 -1577 0
-1498 -1577 0
-1504 -1577 0
-1480 -1551 1577 0
-1480 1554 0
-1480 1560 0
-1506 -1570 -1564 0
-1506 -1570 -1567 0
-1506 -1570 -1561 0
-1506 -1570 -1566 0
-1506 -1571 -1564 0
-1506 -1571 -1567 0
-1506 -1571 -1561 0
-1506 -1571 -1563 0
-1506 -1571 -1566 0
-1506 -1569 -1564 0
-1506 -1569 -1567 0
-1506 -1569 -1561 0
-1506 -1573 -1564 0
-1506 -1573 -1567 0
-1506 -1572 -1567 0
-1507 -1570 -1564 0
-1507 -1570 -1567 0
-1507 -1570 -1561 0
-1507 -1570 -1566 0
-1507 -1571 -1564 0
-1507 -1571 -1567 0
-1507 -1571 -1561 0
-1507 -1571 -1563 0
-1507 -1571 -1566 0
-1507 -1569 -1564 0
-1507 -1569 -1567 0
-1507 -1569 -1561 0
-1507 -1573 -1564 0
-1507 -1573 -1567 0
-1507 -1572 -1567 0
-1382 1506 1507 1508 0
-1381 1505 0
-1506 1382 0
-1507 1382 0
-1508 1382 0
-1505 1381 0
-1510 151 -1509 0
1510 -151 -1509 0
-1511 152 -1509 0
1511 -152 -1509 0
-1512 154 -1509 0
1512 -154 -1509 0
-1513 155 -1509 0
1513 -155 -1509 0
-1514 385 -1509 0
1514 -385 -1509 0
-1515 156 -1509 0
1515 -156 -1509 0
-1516 158 -1509 0
1516 -158 -1509 0
-1517 159 -1509 0
1517 -159 -1509 0
-1518 160 -1509 0
1518 -160 -1509 0
-1390 602 -1509 0
1390 -602 -1509 0
-1519 10 -1509 0
1519 -10 -1509 0
-1520 162 -1509 0
1520 -162 -1509 0
-1521 163 -1509 0
1521 -163 -1509 0
-1394 270 -1509 0
1394 -270 -1509 0
-1522 386 -1509 0
1522 -386 -1509 0
-1523 11 -1509 0
1523 -11 -1509 0
-1397 271 -1509 0
1397 -271 -1509 0
-1524 167 -1509 0
1524 -167 -1509 0
-1525 170 -1509 0
1525 -170 -1509 0
-1526 171 -1509 0
1526 -171 -1509 0
-1527 172 -1509 0
1527 -172 -1509 0
-1401 273 -1509 0
1401 -273 -1509 0
-1528 12 -1509 0
1528 -12 -1509 0
-1529 174 -1509 0
1529 -174 -1509 0
-1530 274 -1509 0
1530 -274 -1509 0
-1531 387 -1509 0
1531 -387 -1509 0
-1532 176 -1509 0
1532 -176 -1509 0
-1533 153 -1509 0
1533 -153 -1509 0
-1534 388 -1509 0
1534 -388 -1509 0
-1535 157 -1509 0
1535 -157 -1509 0
-1408 267 -1509 0
1408 -267 -1509 0
-1536 268 -1509 0
1536 -268 -1509 0
-1409 269 -1509 0
1409 -269 -1509 0
-1537 161 -1509 0
1537 -161 -1509 0
-1538 389 -1509 0
1538 -389 -1509 0
-1539 164 -1509 0
1539 -164 -1509 0
-1540 165 -1509 0
1540 -165 -1509 0
-1541 166 -1509 0
1541 -166 -1509 0
-1542 168 -1509 0
1542 -168 -1509 0
-1543 169 -1509 0
1543 -169 -1509 0
-1416 272 -1509 0
1416 -272 -1509 0
-1544 173 -1509 0
1544 -173 -1509 0
-1545 175 -1509 0
1545 -175 -1509 0
-1546 13 -1509 0
1546 -13 -1509 0
-1420 603 -1509 0
1420 -603 -1509 0
-1547 390 -1509 0
1547 -390 -1509 0
-1548 177 -1509 0
1548 -177 -1509 0
-1549 14 -1509 0
1549 -14 -1509 0
-1550 178 -1509 0
1550 -178 -1509 0
-1437 1578 0
-1578 1437 0
a 1509 0
